\* Source Pyomo model name=unknown *\

min 
objective_function:
+1 total_costs

s.t.

c_u_link_u_dp(0_0)_:
+1 dp(0_0)
-1000000000.0 u(0_0)
<= 0

c_u_link_u_dp(0_1)_:
+1 dp(0_1)
-1000000000.0 u(0_1)
<= 0

c_u_link_u_dp(0_2)_:
+1 dp(0_2)
-1000000000.0 u(0_2)
<= 0

c_u_link_u_dp(0_3)_:
+1 dp(0_3)
-1000000000.0 u(0_3)
<= 0

c_u_link_u_dp(0_4)_:
+1 dp(0_4)
-1000000000.0 u(0_4)
<= 0

c_u_link_u_dp(0_5)_:
+1 dp(0_5)
-1000000000.0 u(0_5)
<= 0

c_u_link_u_dp(0_6)_:
+1 dp(0_6)
-1000000000.0 u(0_6)
<= 0

c_u_link_u_dp(0_7)_:
+1 dp(0_7)
-1000000000.0 u(0_7)
<= 0

c_u_link_u_dp(0_8)_:
+1 dp(0_8)
-1000000000.0 u(0_8)
<= 0

c_u_link_u_dp(0_9)_:
+1 dp(0_9)
-1000000000.0 u(0_9)
<= 0

c_u_link_u_dp(0_10)_:
+1 dp(0_10)
-1000000000.0 u(0_10)
<= 0

c_u_link_u_dp(0_11)_:
+1 dp(0_11)
-1000000000.0 u(0_11)
<= 0

c_u_link_u_dp(0_12)_:
+1 dp(0_12)
-1000000000.0 u(0_12)
<= 0

c_u_link_u_dp(0_13)_:
+1 dp(0_13)
-1000000000.0 u(0_13)
<= 0

c_u_link_u_dp(0_14)_:
+1 dp(0_14)
-1000000000.0 u(0_14)
<= 0

c_u_link_u_dp(0_15)_:
+1 dp(0_15)
-1000000000.0 u(0_15)
<= 0

c_u_link_u_dp(0_16)_:
+1 dp(0_16)
-1000000000.0 u(0_16)
<= 0

c_u_link_u_dp(0_17)_:
+1 dp(0_17)
-1000000000.0 u(0_17)
<= 0

c_u_link_u_dp(0_18)_:
+1 dp(0_18)
-1000000000.0 u(0_18)
<= 0

c_u_link_u_dp(0_19)_:
+1 dp(0_19)
-1000000000.0 u(0_19)
<= 0

c_u_link_u_dp(0_20)_:
+1 dp(0_20)
-1000000000.0 u(0_20)
<= 0

c_u_link_u_dp(0_21)_:
+1 dp(0_21)
-1000000000.0 u(0_21)
<= 0

c_u_link_u_dp(0_22)_:
+1 dp(0_22)
-1000000000.0 u(0_22)
<= 0

c_u_link_u_dp(0_23)_:
+1 dp(0_23)
-1000000000.0 u(0_23)
<= 0

c_u_link_u_dp(1_0)_:
+1 dp(1_0)
-1000000000.0 u(1_0)
<= 0

c_u_link_u_dp(1_1)_:
+1 dp(1_1)
-1000000000.0 u(1_1)
<= 0

c_u_link_u_dp(1_2)_:
+1 dp(1_2)
-1000000000.0 u(1_2)
<= 0

c_u_link_u_dp(1_3)_:
+1 dp(1_3)
-1000000000.0 u(1_3)
<= 0

c_u_link_u_dp(1_4)_:
+1 dp(1_4)
-1000000000.0 u(1_4)
<= 0

c_u_link_u_dp(1_5)_:
+1 dp(1_5)
-1000000000.0 u(1_5)
<= 0

c_u_link_u_dp(1_6)_:
+1 dp(1_6)
-1000000000.0 u(1_6)
<= 0

c_u_link_u_dp(1_7)_:
+1 dp(1_7)
-1000000000.0 u(1_7)
<= 0

c_u_link_u_dp(1_8)_:
+1 dp(1_8)
-1000000000.0 u(1_8)
<= 0

c_u_link_u_dp(1_9)_:
+1 dp(1_9)
-1000000000.0 u(1_9)
<= 0

c_u_link_u_dp(1_10)_:
+1 dp(1_10)
-1000000000.0 u(1_10)
<= 0

c_u_link_u_dp(1_11)_:
+1 dp(1_11)
-1000000000.0 u(1_11)
<= 0

c_u_link_u_dp(1_12)_:
+1 dp(1_12)
-1000000000.0 u(1_12)
<= 0

c_u_link_u_dp(1_13)_:
+1 dp(1_13)
-1000000000.0 u(1_13)
<= 0

c_u_link_u_dp(1_14)_:
+1 dp(1_14)
-1000000000.0 u(1_14)
<= 0

c_u_link_u_dp(1_15)_:
+1 dp(1_15)
-1000000000.0 u(1_15)
<= 0

c_u_link_u_dp(1_16)_:
+1 dp(1_16)
-1000000000.0 u(1_16)
<= 0

c_u_link_u_dp(1_17)_:
+1 dp(1_17)
-1000000000.0 u(1_17)
<= 0

c_u_link_u_dp(1_18)_:
+1 dp(1_18)
-1000000000.0 u(1_18)
<= 0

c_u_link_u_dp(1_19)_:
+1 dp(1_19)
-1000000000.0 u(1_19)
<= 0

c_u_link_u_dp(1_20)_:
+1 dp(1_20)
-1000000000.0 u(1_20)
<= 0

c_u_link_u_dp(1_21)_:
+1 dp(1_21)
-1000000000.0 u(1_21)
<= 0

c_u_link_u_dp(1_22)_:
+1 dp(1_22)
-1000000000.0 u(1_22)
<= 0

c_u_link_u_dp(1_23)_:
+1 dp(1_23)
-1000000000.0 u(1_23)
<= 0

c_u_link_u_dp_neg(0_0)_:
-1 dp(0_0)
+1000000000.0 u(0_0)
<= 1000000000.0

c_u_link_u_dp_neg(0_1)_:
-1 dp(0_1)
+1000000000.0 u(0_1)
<= 1000000000.0

c_u_link_u_dp_neg(0_2)_:
-1 dp(0_2)
+1000000000.0 u(0_2)
<= 1000000000.0

c_u_link_u_dp_neg(0_3)_:
-1 dp(0_3)
+1000000000.0 u(0_3)
<= 1000000000.0

c_u_link_u_dp_neg(0_4)_:
-1 dp(0_4)
+1000000000.0 u(0_4)
<= 1000000000.0

c_u_link_u_dp_neg(0_5)_:
-1 dp(0_5)
+1000000000.0 u(0_5)
<= 1000000000.0

c_u_link_u_dp_neg(0_6)_:
-1 dp(0_6)
+1000000000.0 u(0_6)
<= 1000000000.0

c_u_link_u_dp_neg(0_7)_:
-1 dp(0_7)
+1000000000.0 u(0_7)
<= 1000000000.0

c_u_link_u_dp_neg(0_8)_:
-1 dp(0_8)
+1000000000.0 u(0_8)
<= 1000000000.0

c_u_link_u_dp_neg(0_9)_:
-1 dp(0_9)
+1000000000.0 u(0_9)
<= 1000000000.0

c_u_link_u_dp_neg(0_10)_:
-1 dp(0_10)
+1000000000.0 u(0_10)
<= 1000000000.0

c_u_link_u_dp_neg(0_11)_:
-1 dp(0_11)
+1000000000.0 u(0_11)
<= 1000000000.0

c_u_link_u_dp_neg(0_12)_:
-1 dp(0_12)
+1000000000.0 u(0_12)
<= 1000000000.0

c_u_link_u_dp_neg(0_13)_:
-1 dp(0_13)
+1000000000.0 u(0_13)
<= 1000000000.0

c_u_link_u_dp_neg(0_14)_:
-1 dp(0_14)
+1000000000.0 u(0_14)
<= 1000000000.0

c_u_link_u_dp_neg(0_15)_:
-1 dp(0_15)
+1000000000.0 u(0_15)
<= 1000000000.0

c_u_link_u_dp_neg(0_16)_:
-1 dp(0_16)
+1000000000.0 u(0_16)
<= 1000000000.0

c_u_link_u_dp_neg(0_17)_:
-1 dp(0_17)
+1000000000.0 u(0_17)
<= 1000000000.0

c_u_link_u_dp_neg(0_18)_:
-1 dp(0_18)
+1000000000.0 u(0_18)
<= 1000000000.0

c_u_link_u_dp_neg(0_19)_:
-1 dp(0_19)
+1000000000.0 u(0_19)
<= 1000000000.0

c_u_link_u_dp_neg(0_20)_:
-1 dp(0_20)
+1000000000.0 u(0_20)
<= 1000000000.0

c_u_link_u_dp_neg(0_21)_:
-1 dp(0_21)
+1000000000.0 u(0_21)
<= 1000000000.0

c_u_link_u_dp_neg(0_22)_:
-1 dp(0_22)
+1000000000.0 u(0_22)
<= 1000000000.0

c_u_link_u_dp_neg(0_23)_:
-1 dp(0_23)
+1000000000.0 u(0_23)
<= 1000000000.0

c_u_link_u_dp_neg(1_0)_:
-1 dp(1_0)
+1000000000.0 u(1_0)
<= 1000000000.0

c_u_link_u_dp_neg(1_1)_:
-1 dp(1_1)
+1000000000.0 u(1_1)
<= 1000000000.0

c_u_link_u_dp_neg(1_2)_:
-1 dp(1_2)
+1000000000.0 u(1_2)
<= 1000000000.0

c_u_link_u_dp_neg(1_3)_:
-1 dp(1_3)
+1000000000.0 u(1_3)
<= 1000000000.0

c_u_link_u_dp_neg(1_4)_:
-1 dp(1_4)
+1000000000.0 u(1_4)
<= 1000000000.0

c_u_link_u_dp_neg(1_5)_:
-1 dp(1_5)
+1000000000.0 u(1_5)
<= 1000000000.0

c_u_link_u_dp_neg(1_6)_:
-1 dp(1_6)
+1000000000.0 u(1_6)
<= 1000000000.0

c_u_link_u_dp_neg(1_7)_:
-1 dp(1_7)
+1000000000.0 u(1_7)
<= 1000000000.0

c_u_link_u_dp_neg(1_8)_:
-1 dp(1_8)
+1000000000.0 u(1_8)
<= 1000000000.0

c_u_link_u_dp_neg(1_9)_:
-1 dp(1_9)
+1000000000.0 u(1_9)
<= 1000000000.0

c_u_link_u_dp_neg(1_10)_:
-1 dp(1_10)
+1000000000.0 u(1_10)
<= 1000000000.0

c_u_link_u_dp_neg(1_11)_:
-1 dp(1_11)
+1000000000.0 u(1_11)
<= 1000000000.0

c_u_link_u_dp_neg(1_12)_:
-1 dp(1_12)
+1000000000.0 u(1_12)
<= 1000000000.0

c_u_link_u_dp_neg(1_13)_:
-1 dp(1_13)
+1000000000.0 u(1_13)
<= 1000000000.0

c_u_link_u_dp_neg(1_14)_:
-1 dp(1_14)
+1000000000.0 u(1_14)
<= 1000000000.0

c_u_link_u_dp_neg(1_15)_:
-1 dp(1_15)
+1000000000.0 u(1_15)
<= 1000000000.0

c_u_link_u_dp_neg(1_16)_:
-1 dp(1_16)
+1000000000.0 u(1_16)
<= 1000000000.0

c_u_link_u_dp_neg(1_17)_:
-1 dp(1_17)
+1000000000.0 u(1_17)
<= 1000000000.0

c_u_link_u_dp_neg(1_18)_:
-1 dp(1_18)
+1000000000.0 u(1_18)
<= 1000000000.0

c_u_link_u_dp_neg(1_19)_:
-1 dp(1_19)
+1000000000.0 u(1_19)
<= 1000000000.0

c_u_link_u_dp_neg(1_20)_:
-1 dp(1_20)
+1000000000.0 u(1_20)
<= 1000000000.0

c_u_link_u_dp_neg(1_21)_:
-1 dp(1_21)
+1000000000.0 u(1_21)
<= 1000000000.0

c_u_link_u_dp_neg(1_22)_:
-1 dp(1_22)
+1000000000.0 u(1_22)
<= 1000000000.0

c_u_link_u_dp_neg(1_23)_:
-1 dp(1_23)
+1000000000.0 u(1_23)
<= 1000000000.0

c_u_con_def_congestion_1(0_0)_:
+1 f(0_0)
-1 congestion(0_0)
<= 100.0

c_u_con_def_congestion_1(0_1)_:
+1 f(0_1)
-1 congestion(0_1)
<= 100.0

c_u_con_def_congestion_1(0_2)_:
+1 f(0_2)
-1 congestion(0_2)
<= 100.0

c_u_con_def_congestion_1(0_3)_:
+1 f(0_3)
-1 congestion(0_3)
<= 100.0

c_u_con_def_congestion_1(0_4)_:
+1 f(0_4)
-1 congestion(0_4)
<= 100.0

c_u_con_def_congestion_1(0_5)_:
+1 f(0_5)
-1 congestion(0_5)
<= 100.0

c_u_con_def_congestion_1(0_6)_:
+1 f(0_6)
-1 congestion(0_6)
<= 100.0

c_u_con_def_congestion_1(0_7)_:
+1 f(0_7)
-1 congestion(0_7)
<= 100.0

c_u_con_def_congestion_1(0_8)_:
+1 f(0_8)
-1 congestion(0_8)
<= 100.0

c_u_con_def_congestion_1(0_9)_:
+1 f(0_9)
-1 congestion(0_9)
<= 100.0

c_u_con_def_congestion_1(0_10)_:
+1 f(0_10)
-1 congestion(0_10)
<= 100.0

c_u_con_def_congestion_1(0_11)_:
+1 f(0_11)
-1 congestion(0_11)
<= 100.0

c_u_con_def_congestion_1(0_12)_:
+1 f(0_12)
-1 congestion(0_12)
<= 100.0

c_u_con_def_congestion_1(0_13)_:
+1 f(0_13)
-1 congestion(0_13)
<= 100.0

c_u_con_def_congestion_1(0_14)_:
+1 f(0_14)
-1 congestion(0_14)
<= 100.0

c_u_con_def_congestion_1(0_15)_:
+1 f(0_15)
-1 congestion(0_15)
<= 100.0

c_u_con_def_congestion_1(0_16)_:
+1 f(0_16)
-1 congestion(0_16)
<= 100.0

c_u_con_def_congestion_1(0_17)_:
+1 f(0_17)
-1 congestion(0_17)
<= 100.0

c_u_con_def_congestion_1(0_18)_:
+1 f(0_18)
-1 congestion(0_18)
<= 100.0

c_u_con_def_congestion_1(0_19)_:
+1 f(0_19)
-1 congestion(0_19)
<= 100.0

c_u_con_def_congestion_1(0_20)_:
+1 f(0_20)
-1 congestion(0_20)
<= 100.0

c_u_con_def_congestion_1(0_21)_:
+1 f(0_21)
-1 congestion(0_21)
<= 100.0

c_u_con_def_congestion_1(0_22)_:
+1 f(0_22)
-1 congestion(0_22)
<= 100.0

c_u_con_def_congestion_1(0_23)_:
+1 f(0_23)
-1 congestion(0_23)
<= 100.0

c_u_con_def_congestion_2(0_0)_:
-1 f(0_0)
-1 congestion(0_0)
<= 100.0

c_u_con_def_congestion_2(0_1)_:
-1 f(0_1)
-1 congestion(0_1)
<= 100.0

c_u_con_def_congestion_2(0_2)_:
-1 f(0_2)
-1 congestion(0_2)
<= 100.0

c_u_con_def_congestion_2(0_3)_:
-1 f(0_3)
-1 congestion(0_3)
<= 100.0

c_u_con_def_congestion_2(0_4)_:
-1 f(0_4)
-1 congestion(0_4)
<= 100.0

c_u_con_def_congestion_2(0_5)_:
-1 f(0_5)
-1 congestion(0_5)
<= 100.0

c_u_con_def_congestion_2(0_6)_:
-1 f(0_6)
-1 congestion(0_6)
<= 100.0

c_u_con_def_congestion_2(0_7)_:
-1 f(0_7)
-1 congestion(0_7)
<= 100.0

c_u_con_def_congestion_2(0_8)_:
-1 f(0_8)
-1 congestion(0_8)
<= 100.0

c_u_con_def_congestion_2(0_9)_:
-1 f(0_9)
-1 congestion(0_9)
<= 100.0

c_u_con_def_congestion_2(0_10)_:
-1 f(0_10)
-1 congestion(0_10)
<= 100.0

c_u_con_def_congestion_2(0_11)_:
-1 f(0_11)
-1 congestion(0_11)
<= 100.0

c_u_con_def_congestion_2(0_12)_:
-1 f(0_12)
-1 congestion(0_12)
<= 100.0

c_u_con_def_congestion_2(0_13)_:
-1 f(0_13)
-1 congestion(0_13)
<= 100.0

c_u_con_def_congestion_2(0_14)_:
-1 f(0_14)
-1 congestion(0_14)
<= 100.0

c_u_con_def_congestion_2(0_15)_:
-1 f(0_15)
-1 congestion(0_15)
<= 100.0

c_u_con_def_congestion_2(0_16)_:
-1 f(0_16)
-1 congestion(0_16)
<= 100.0

c_u_con_def_congestion_2(0_17)_:
-1 f(0_17)
-1 congestion(0_17)
<= 100.0

c_u_con_def_congestion_2(0_18)_:
-1 f(0_18)
-1 congestion(0_18)
<= 100.0

c_u_con_def_congestion_2(0_19)_:
-1 f(0_19)
-1 congestion(0_19)
<= 100.0

c_u_con_def_congestion_2(0_20)_:
-1 f(0_20)
-1 congestion(0_20)
<= 100.0

c_u_con_def_congestion_2(0_21)_:
-1 f(0_21)
-1 congestion(0_21)
<= 100.0

c_u_con_def_congestion_2(0_22)_:
-1 f(0_22)
-1 congestion(0_22)
<= 100.0

c_u_con_def_congestion_2(0_23)_:
-1 f(0_23)
-1 congestion(0_23)
<= 100.0

c_e_con_ref_theta(0)_:
+1 theta(0_0)
= 0.0

c_e_con_ref_theta(1)_:
+1 theta(0_1)
= 0.0

c_e_con_ref_theta(2)_:
+1 theta(0_2)
= 0.0

c_e_con_ref_theta(3)_:
+1 theta(0_3)
= 0.0

c_e_con_ref_theta(4)_:
+1 theta(0_4)
= 0.0

c_e_con_ref_theta(5)_:
+1 theta(0_5)
= 0.0

c_e_con_ref_theta(6)_:
+1 theta(0_6)
= 0.0

c_e_con_ref_theta(7)_:
+1 theta(0_7)
= 0.0

c_e_con_ref_theta(8)_:
+1 theta(0_8)
= 0.0

c_e_con_ref_theta(9)_:
+1 theta(0_9)
= 0.0

c_e_con_ref_theta(10)_:
+1 theta(0_10)
= 0.0

c_e_con_ref_theta(11)_:
+1 theta(0_11)
= 0.0

c_e_con_ref_theta(12)_:
+1 theta(0_12)
= 0.0

c_e_con_ref_theta(13)_:
+1 theta(0_13)
= 0.0

c_e_con_ref_theta(14)_:
+1 theta(0_14)
= 0.0

c_e_con_ref_theta(15)_:
+1 theta(0_15)
= 0.0

c_e_con_ref_theta(16)_:
+1 theta(0_16)
= 0.0

c_e_con_ref_theta(17)_:
+1 theta(0_17)
= 0.0

c_e_con_ref_theta(18)_:
+1 theta(0_18)
= 0.0

c_e_con_ref_theta(19)_:
+1 theta(0_19)
= 0.0

c_e_con_ref_theta(20)_:
+1 theta(0_20)
= 0.0

c_e_con_ref_theta(21)_:
+1 theta(0_21)
= 0.0

c_e_con_ref_theta(22)_:
+1 theta(0_22)
= 0.0

c_e_con_ref_theta(23)_:
+1 theta(0_23)
= 0.0

c_e_con_DC_flow(0_0)_:
+1 f(0_0)
-1000.0 theta(0_0)
+1000.0 theta(1_0)
= 0

c_e_con_DC_flow(0_1)_:
+1 f(0_1)
-1000.0 theta(0_1)
+1000.0 theta(1_1)
= 0

c_e_con_DC_flow(0_2)_:
+1 f(0_2)
-1000.0 theta(0_2)
+1000.0 theta(1_2)
= 0

c_e_con_DC_flow(0_3)_:
+1 f(0_3)
-1000.0 theta(0_3)
+1000.0 theta(1_3)
= 0

c_e_con_DC_flow(0_4)_:
+1 f(0_4)
-1000.0 theta(0_4)
+1000.0 theta(1_4)
= 0

c_e_con_DC_flow(0_5)_:
+1 f(0_5)
-1000.0 theta(0_5)
+1000.0 theta(1_5)
= 0

c_e_con_DC_flow(0_6)_:
+1 f(0_6)
-1000.0 theta(0_6)
+1000.0 theta(1_6)
= 0

c_e_con_DC_flow(0_7)_:
+1 f(0_7)
-1000.0 theta(0_7)
+1000.0 theta(1_7)
= 0

c_e_con_DC_flow(0_8)_:
+1 f(0_8)
-1000.0 theta(0_8)
+1000.0 theta(1_8)
= 0

c_e_con_DC_flow(0_9)_:
+1 f(0_9)
-1000.0 theta(0_9)
+1000.0 theta(1_9)
= 0

c_e_con_DC_flow(0_10)_:
+1 f(0_10)
-1000.0 theta(0_10)
+1000.0 theta(1_10)
= 0

c_e_con_DC_flow(0_11)_:
+1 f(0_11)
-1000.0 theta(0_11)
+1000.0 theta(1_11)
= 0

c_e_con_DC_flow(0_12)_:
+1 f(0_12)
-1000.0 theta(0_12)
+1000.0 theta(1_12)
= 0

c_e_con_DC_flow(0_13)_:
+1 f(0_13)
-1000.0 theta(0_13)
+1000.0 theta(1_13)
= 0

c_e_con_DC_flow(0_14)_:
+1 f(0_14)
-1000.0 theta(0_14)
+1000.0 theta(1_14)
= 0

c_e_con_DC_flow(0_15)_:
+1 f(0_15)
-1000.0 theta(0_15)
+1000.0 theta(1_15)
= 0

c_e_con_DC_flow(0_16)_:
+1 f(0_16)
-1000.0 theta(0_16)
+1000.0 theta(1_16)
= 0

c_e_con_DC_flow(0_17)_:
+1 f(0_17)
-1000.0 theta(0_17)
+1000.0 theta(1_17)
= 0

c_e_con_DC_flow(0_18)_:
+1 f(0_18)
-1000.0 theta(0_18)
+1000.0 theta(1_18)
= 0

c_e_con_DC_flow(0_19)_:
+1 f(0_19)
-1000.0 theta(0_19)
+1000.0 theta(1_19)
= 0

c_e_con_DC_flow(0_20)_:
+1 f(0_20)
-1000.0 theta(0_20)
+1000.0 theta(1_20)
= 0

c_e_con_DC_flow(0_21)_:
+1 f(0_21)
-1000.0 theta(0_21)
+1000.0 theta(1_21)
= 0

c_e_con_DC_flow(0_22)_:
+1 f(0_22)
-1000.0 theta(0_22)
+1000.0 theta(1_22)
= 0

c_e_con_DC_flow(0_23)_:
+1 f(0_23)
-1000.0 theta(0_23)
+1000.0 theta(1_23)
= 0

c_e_con_nodal_power_balance(0_0)_:
-1 f(0_0)
+1 p(0_0)
= 0

c_e_con_nodal_power_balance(0_1)_:
-1 f(0_1)
+1 p(0_1)
= 0

c_e_con_nodal_power_balance(0_2)_:
-1 f(0_2)
+1 p(0_2)
= 0

c_e_con_nodal_power_balance(0_3)_:
-1 f(0_3)
+1 p(0_3)
= 0

c_e_con_nodal_power_balance(0_4)_:
-1 f(0_4)
+1 p(0_4)
= 0

c_e_con_nodal_power_balance(0_5)_:
-1 f(0_5)
+1 p(0_5)
= 0

c_e_con_nodal_power_balance(0_6)_:
-1 f(0_6)
+1 p(0_6)
= 0

c_e_con_nodal_power_balance(0_7)_:
-1 f(0_7)
+1 p(0_7)
= 0

c_e_con_nodal_power_balance(0_8)_:
-1 f(0_8)
+1 p(0_8)
= 0

c_e_con_nodal_power_balance(0_9)_:
-1 f(0_9)
+1 p(0_9)
= 0

c_e_con_nodal_power_balance(0_10)_:
-1 f(0_10)
+1 p(0_10)
= 0

c_e_con_nodal_power_balance(0_11)_:
-1 f(0_11)
+1 p(0_11)
= 0

c_e_con_nodal_power_balance(0_12)_:
-1 f(0_12)
+1 p(0_12)
= 0

c_e_con_nodal_power_balance(0_13)_:
-1 f(0_13)
+1 p(0_13)
= 0

c_e_con_nodal_power_balance(0_14)_:
-1 f(0_14)
+1 p(0_14)
= 0

c_e_con_nodal_power_balance(0_15)_:
-1 f(0_15)
+1 p(0_15)
= 0

c_e_con_nodal_power_balance(0_16)_:
-1 f(0_16)
+1 p(0_16)
= 0

c_e_con_nodal_power_balance(0_17)_:
-1 f(0_17)
+1 p(0_17)
= 0

c_e_con_nodal_power_balance(0_18)_:
-1 f(0_18)
+1 p(0_18)
= 0

c_e_con_nodal_power_balance(0_19)_:
-1 f(0_19)
+1 p(0_19)
= 0

c_e_con_nodal_power_balance(0_20)_:
-1 f(0_20)
+1 p(0_20)
= 0

c_e_con_nodal_power_balance(0_21)_:
-1 f(0_21)
+1 p(0_21)
= 0

c_e_con_nodal_power_balance(0_22)_:
-1 f(0_22)
+1 p(0_22)
= 0

c_e_con_nodal_power_balance(0_23)_:
-1 f(0_23)
+1 p(0_23)
= 0

c_e_con_nodal_power_balance(1_0)_:
+1 f(0_0)
+1 p(1_0)
= 0

c_e_con_nodal_power_balance(1_1)_:
+1 f(0_1)
+1 p(1_1)
= 0

c_e_con_nodal_power_balance(1_2)_:
+1 f(0_2)
+1 p(1_2)
= 0

c_e_con_nodal_power_balance(1_3)_:
+1 f(0_3)
+1 p(1_3)
= 0

c_e_con_nodal_power_balance(1_4)_:
+1 f(0_4)
+1 p(1_4)
= 0

c_e_con_nodal_power_balance(1_5)_:
+1 f(0_5)
+1 p(1_5)
= 0

c_e_con_nodal_power_balance(1_6)_:
+1 f(0_6)
+1 p(1_6)
= 0

c_e_con_nodal_power_balance(1_7)_:
+1 f(0_7)
+1 p(1_7)
= 0

c_e_con_nodal_power_balance(1_8)_:
+1 f(0_8)
+1 p(1_8)
= 0

c_e_con_nodal_power_balance(1_9)_:
+1 f(0_9)
+1 p(1_9)
= 0

c_e_con_nodal_power_balance(1_10)_:
+1 f(0_10)
+1 p(1_10)
= 0

c_e_con_nodal_power_balance(1_11)_:
+1 f(0_11)
+1 p(1_11)
= 0

c_e_con_nodal_power_balance(1_12)_:
+1 f(0_12)
+1 p(1_12)
= 0

c_e_con_nodal_power_balance(1_13)_:
+1 f(0_13)
+1 p(1_13)
= 0

c_e_con_nodal_power_balance(1_14)_:
+1 f(0_14)
+1 p(1_14)
= 0

c_e_con_nodal_power_balance(1_15)_:
+1 f(0_15)
+1 p(1_15)
= 0

c_e_con_nodal_power_balance(1_16)_:
+1 f(0_16)
+1 p(1_16)
= 0

c_e_con_nodal_power_balance(1_17)_:
+1 f(0_17)
+1 p(1_17)
= 0

c_e_con_nodal_power_balance(1_18)_:
+1 f(0_18)
+1 p(1_18)
= 0

c_e_con_nodal_power_balance(1_19)_:
+1 f(0_19)
+1 p(1_19)
= 0

c_e_con_nodal_power_balance(1_20)_:
+1 f(0_20)
+1 p(1_20)
= 0

c_e_con_nodal_power_balance(1_21)_:
+1 f(0_21)
+1 p(1_21)
= 0

c_e_con_nodal_power_balance(1_22)_:
+1 f(0_22)
+1 p(1_22)
= 0

c_e_con_nodal_power_balance(1_23)_:
+1 f(0_23)
+1 p(1_23)
= 0

c_e_con_def_p(0_0)_:
-1 dp(0_0)
+1 p(0_0)
= 100.0

c_e_con_def_p(0_1)_:
-1 dp(0_1)
+1 p(0_1)
= 100.0

c_e_con_def_p(0_2)_:
-1 dp(0_2)
+1 p(0_2)
= 100.0

c_e_con_def_p(0_3)_:
-1 dp(0_3)
+1 p(0_3)
= 100.0

c_e_con_def_p(0_4)_:
-1 dp(0_4)
+1 p(0_4)
= 100.0

c_e_con_def_p(0_5)_:
-1 dp(0_5)
+1 p(0_5)
= 100.0

c_e_con_def_p(0_6)_:
-1 dp(0_6)
+1 p(0_6)
= 100.0

c_e_con_def_p(0_7)_:
-1 dp(0_7)
+1 p(0_7)
= 100.0

c_e_con_def_p(0_8)_:
-1 dp(0_8)
+1 p(0_8)
= 100.0

c_e_con_def_p(0_9)_:
-1 dp(0_9)
+1 p(0_9)
= 100.0

c_e_con_def_p(0_10)_:
-1 dp(0_10)
+1 p(0_10)
= 150.0

c_e_con_def_p(0_11)_:
-1 dp(0_11)
+1 p(0_11)
= 150.0

c_e_con_def_p(0_12)_:
-1 dp(0_12)
+1 p(0_12)
= 150.0

c_e_con_def_p(0_13)_:
-1 dp(0_13)
+1 p(0_13)
= 150.0

c_e_con_def_p(0_14)_:
-1 dp(0_14)
+1 p(0_14)
= 50.0

c_e_con_def_p(0_15)_:
-1 dp(0_15)
+1 p(0_15)
= 50.0

c_e_con_def_p(0_16)_:
-1 dp(0_16)
+1 p(0_16)
= 100.0

c_e_con_def_p(0_17)_:
-1 dp(0_17)
+1 p(0_17)
= 100.0

c_e_con_def_p(0_18)_:
-1 dp(0_18)
+1 p(0_18)
= 100.0

c_e_con_def_p(0_19)_:
-1 dp(0_19)
+1 p(0_19)
= 100.0

c_e_con_def_p(0_20)_:
-1 dp(0_20)
+1 p(0_20)
= 100.0

c_e_con_def_p(0_21)_:
-1 dp(0_21)
+1 p(0_21)
= 100.0

c_e_con_def_p(0_22)_:
-1 dp(0_22)
+1 p(0_22)
= 100.0

c_e_con_def_p(0_23)_:
-1 dp(0_23)
+1 p(0_23)
= 100.0

c_e_con_def_p(1_0)_:
-1 dp(1_0)
+1 p(1_0)
= -100.0

c_e_con_def_p(1_1)_:
-1 dp(1_1)
+1 p(1_1)
= -100.0

c_e_con_def_p(1_2)_:
-1 dp(1_2)
+1 p(1_2)
= -100.0

c_e_con_def_p(1_3)_:
-1 dp(1_3)
+1 p(1_3)
= -100.0

c_e_con_def_p(1_4)_:
-1 dp(1_4)
+1 p(1_4)
= -100.0

c_e_con_def_p(1_5)_:
-1 dp(1_5)
+1 p(1_5)
= -100.0

c_e_con_def_p(1_6)_:
-1 dp(1_6)
+1 p(1_6)
= -100.0

c_e_con_def_p(1_7)_:
-1 dp(1_7)
+1 p(1_7)
= -100.0

c_e_con_def_p(1_8)_:
-1 dp(1_8)
+1 p(1_8)
= -100.0

c_e_con_def_p(1_9)_:
-1 dp(1_9)
+1 p(1_9)
= -100.0

c_e_con_def_p(1_10)_:
-1 dp(1_10)
+1 p(1_10)
= -150.0

c_e_con_def_p(1_11)_:
-1 dp(1_11)
+1 p(1_11)
= -150.0

c_e_con_def_p(1_12)_:
-1 dp(1_12)
+1 p(1_12)
= -150.0

c_e_con_def_p(1_13)_:
-1 dp(1_13)
+1 p(1_13)
= -150.0

c_e_con_def_p(1_14)_:
-1 dp(1_14)
+1 p(1_14)
= -50.0

c_e_con_def_p(1_15)_:
-1 dp(1_15)
+1 p(1_15)
= -50.0

c_e_con_def_p(1_16)_:
-1 dp(1_16)
+1 p(1_16)
= -100.0

c_e_con_def_p(1_17)_:
-1 dp(1_17)
+1 p(1_17)
= -100.0

c_e_con_def_p(1_18)_:
-1 dp(1_18)
+1 p(1_18)
= -100.0

c_e_con_def_p(1_19)_:
-1 dp(1_19)
+1 p(1_19)
= -100.0

c_e_con_def_p(1_20)_:
-1 dp(1_20)
+1 p(1_20)
= -100.0

c_e_con_def_p(1_21)_:
-1 dp(1_21)
+1 p(1_21)
= -100.0

c_e_con_def_p(1_22)_:
-1 dp(1_22)
+1 p(1_22)
= -100.0

c_e_con_def_p(1_23)_:
-1 dp(1_23)
+1 p(1_23)
= -100.0

c_l_con_lower_bound_dp(0_0)_:
+1 dp(0_0)
>= 0

c_l_con_lower_bound_dp(0_1)_:
+1 dp(0_1)
>= -1000.0

c_l_con_lower_bound_dp(0_2)_:
+1 dp(0_2)
>= -1000.0

c_l_con_lower_bound_dp(0_3)_:
+1 dp(0_3)
>= -1000.0

c_l_con_lower_bound_dp(0_4)_:
+1 dp(0_4)
>= -1000.0

c_l_con_lower_bound_dp(0_5)_:
+1 dp(0_5)
>= -1000.0

c_l_con_lower_bound_dp(0_6)_:
+1 dp(0_6)
>= -1000.0

c_l_con_lower_bound_dp(0_7)_:
+1 dp(0_7)
>= -1000.0

c_l_con_lower_bound_dp(0_8)_:
+1 dp(0_8)
>= -1000.0

c_l_con_lower_bound_dp(0_9)_:
+1 dp(0_9)
>= -1000.0

c_l_con_lower_bound_dp(0_10)_:
+1 dp(0_10)
>= -1000.0

c_l_con_lower_bound_dp(0_11)_:
+1 dp(0_11)
>= -1000.0

c_l_con_lower_bound_dp(0_12)_:
+1 dp(0_12)
>= -1000.0

c_l_con_lower_bound_dp(0_13)_:
+1 dp(0_13)
>= -1000.0

c_l_con_lower_bound_dp(0_14)_:
+1 dp(0_14)
>= -1000.0

c_l_con_lower_bound_dp(0_15)_:
+1 dp(0_15)
>= -1000.0

c_l_con_lower_bound_dp(0_16)_:
+1 dp(0_16)
>= -1000.0

c_l_con_lower_bound_dp(0_17)_:
+1 dp(0_17)
>= -1000.0

c_l_con_lower_bound_dp(0_18)_:
+1 dp(0_18)
>= -1000.0

c_l_con_lower_bound_dp(0_19)_:
+1 dp(0_19)
>= -1000.0

c_l_con_lower_bound_dp(0_20)_:
+1 dp(0_20)
>= -1000.0

c_l_con_lower_bound_dp(0_21)_:
+1 dp(0_21)
>= -1000.0

c_l_con_lower_bound_dp(0_22)_:
+1 dp(0_22)
>= -1000.0

c_l_con_lower_bound_dp(0_23)_:
+1 dp(0_23)
>= 0

c_l_con_lower_bound_dp(1_0)_:
+1 dp(1_0)
>= 0

c_l_con_lower_bound_dp(1_1)_:
+1 dp(1_1)
>= 0

c_l_con_lower_bound_dp(1_2)_:
+1 dp(1_2)
>= 0

c_l_con_lower_bound_dp(1_3)_:
+1 dp(1_3)
>= 0

c_l_con_lower_bound_dp(1_4)_:
+1 dp(1_4)
>= 0

c_l_con_lower_bound_dp(1_5)_:
+1 dp(1_5)
>= 0

c_l_con_lower_bound_dp(1_6)_:
+1 dp(1_6)
>= 0

c_l_con_lower_bound_dp(1_7)_:
+1 dp(1_7)
>= 0

c_l_con_lower_bound_dp(1_8)_:
+1 dp(1_8)
>= 0

c_l_con_lower_bound_dp(1_9)_:
+1 dp(1_9)
>= 0

c_l_con_lower_bound_dp(1_10)_:
+1 dp(1_10)
>= 0

c_l_con_lower_bound_dp(1_11)_:
+1 dp(1_11)
>= 0

c_l_con_lower_bound_dp(1_12)_:
+1 dp(1_12)
>= 0

c_l_con_lower_bound_dp(1_13)_:
+1 dp(1_13)
>= 0

c_l_con_lower_bound_dp(1_14)_:
+1 dp(1_14)
>= 0

c_l_con_lower_bound_dp(1_15)_:
+1 dp(1_15)
>= 0

c_l_con_lower_bound_dp(1_16)_:
+1 dp(1_16)
>= 0

c_l_con_lower_bound_dp(1_17)_:
+1 dp(1_17)
>= 0

c_l_con_lower_bound_dp(1_18)_:
+1 dp(1_18)
>= 0

c_l_con_lower_bound_dp(1_19)_:
+1 dp(1_19)
>= 0

c_l_con_lower_bound_dp(1_20)_:
+1 dp(1_20)
>= 0

c_l_con_lower_bound_dp(1_21)_:
+1 dp(1_21)
>= 0

c_l_con_lower_bound_dp(1_22)_:
+1 dp(1_22)
>= 0

c_l_con_lower_bound_dp(1_23)_:
+1 dp(1_23)
>= 0

c_u_con_upper_bound_dp(0_0)_:
+1 dp(0_0)
<= 0.0

c_u_con_upper_bound_dp(0_1)_:
+1 dp(0_1)
<= 0.0

c_u_con_upper_bound_dp(0_2)_:
+1 dp(0_2)
<= 0.0

c_u_con_upper_bound_dp(0_3)_:
+1 dp(0_3)
<= 0.0

c_u_con_upper_bound_dp(0_4)_:
+1 dp(0_4)
<= 0.0

c_u_con_upper_bound_dp(0_5)_:
+1 dp(0_5)
<= 0.0

c_u_con_upper_bound_dp(0_6)_:
+1 dp(0_6)
<= 0.0

c_u_con_upper_bound_dp(0_7)_:
+1 dp(0_7)
<= 0.0

c_u_con_upper_bound_dp(0_8)_:
+1 dp(0_8)
<= 0.0

c_u_con_upper_bound_dp(0_9)_:
+1 dp(0_9)
<= 0.0

c_u_con_upper_bound_dp(0_10)_:
+1 dp(0_10)
<= 0.0

c_u_con_upper_bound_dp(0_11)_:
+1 dp(0_11)
<= 0.0

c_u_con_upper_bound_dp(0_12)_:
+1 dp(0_12)
<= 0.0

c_u_con_upper_bound_dp(0_13)_:
+1 dp(0_13)
<= 0.0

c_u_con_upper_bound_dp(0_14)_:
+1 dp(0_14)
<= 0.0

c_u_con_upper_bound_dp(0_15)_:
+1 dp(0_15)
<= 0.0

c_u_con_upper_bound_dp(0_16)_:
+1 dp(0_16)
<= 0.0

c_u_con_upper_bound_dp(0_17)_:
+1 dp(0_17)
<= 0.0

c_u_con_upper_bound_dp(0_18)_:
+1 dp(0_18)
<= 0.0

c_u_con_upper_bound_dp(0_19)_:
+1 dp(0_19)
<= 0.0

c_u_con_upper_bound_dp(0_20)_:
+1 dp(0_20)
<= 0.0

c_u_con_upper_bound_dp(0_21)_:
+1 dp(0_21)
<= 0.0

c_u_con_upper_bound_dp(0_22)_:
+1 dp(0_22)
<= 0.0

c_u_con_upper_bound_dp(0_23)_:
+1 dp(0_23)
<= 0.0

c_u_con_upper_bound_dp(1_0)_:
+1 dp(1_0)
<= 0.0

c_u_con_upper_bound_dp(1_1)_:
+1 dp(1_1)
<= 0.0

c_u_con_upper_bound_dp(1_2)_:
+1 dp(1_2)
<= 0.0

c_u_con_upper_bound_dp(1_3)_:
+1 dp(1_3)
<= 0.0

c_u_con_upper_bound_dp(1_4)_:
+1 dp(1_4)
<= 1000.0

c_u_con_upper_bound_dp(1_5)_:
+1 dp(1_5)
<= 1000.0

c_u_con_upper_bound_dp(1_6)_:
+1 dp(1_6)
<= 1000.0

c_u_con_upper_bound_dp(1_7)_:
+1 dp(1_7)
<= 1000.0

c_u_con_upper_bound_dp(1_8)_:
+1 dp(1_8)
<= 1000.0

c_u_con_upper_bound_dp(1_9)_:
+1 dp(1_9)
<= 1000.0

c_u_con_upper_bound_dp(1_10)_:
+1 dp(1_10)
<= 1000.0

c_u_con_upper_bound_dp(1_11)_:
+1 dp(1_11)
<= 1000.0

c_u_con_upper_bound_dp(1_12)_:
+1 dp(1_12)
<= 1000.0

c_u_con_upper_bound_dp(1_13)_:
+1 dp(1_13)
<= 1000.0

c_u_con_upper_bound_dp(1_14)_:
+1 dp(1_14)
<= 1000.0

c_u_con_upper_bound_dp(1_15)_:
+1 dp(1_15)
<= 1000.0

c_u_con_upper_bound_dp(1_16)_:
+1 dp(1_16)
<= 1000.0

c_u_con_upper_bound_dp(1_17)_:
+1 dp(1_17)
<= 1000.0

c_u_con_upper_bound_dp(1_18)_:
+1 dp(1_18)
<= 1000.0

c_u_con_upper_bound_dp(1_19)_:
+1 dp(1_19)
<= 1000.0

c_u_con_upper_bound_dp(1_20)_:
+1 dp(1_20)
<= 1000.0

c_u_con_upper_bound_dp(1_21)_:
+1 dp(1_21)
<= 1000.0

c_u_con_upper_bound_dp(1_22)_:
+1 dp(1_22)
<= 1000.0

c_u_con_upper_bound_dp(1_23)_:
+1 dp(1_23)
<= 0.0

c_e_con_dp_balance(0)_:
+1 dp(0_0)
+1 dp(1_0)
= 0.0

c_e_con_dp_balance(1)_:
+1 dp(0_1)
+1 dp(1_1)
= 0.0

c_e_con_dp_balance(2)_:
+1 dp(0_2)
+1 dp(1_2)
= 0.0

c_e_con_dp_balance(3)_:
+1 dp(0_3)
+1 dp(1_3)
= 0.0

c_e_con_dp_balance(4)_:
+1 dp(0_4)
+1 dp(1_4)
= 0.0

c_e_con_dp_balance(5)_:
+1 dp(0_5)
+1 dp(1_5)
= 0.0

c_e_con_dp_balance(6)_:
+1 dp(0_6)
+1 dp(1_6)
= 0.0

c_e_con_dp_balance(7)_:
+1 dp(0_7)
+1 dp(1_7)
= 0.0

c_e_con_dp_balance(8)_:
+1 dp(0_8)
+1 dp(1_8)
= 0.0

c_e_con_dp_balance(9)_:
+1 dp(0_9)
+1 dp(1_9)
= 0.0

c_e_con_dp_balance(10)_:
+1 dp(0_10)
+1 dp(1_10)
= 0.0

c_e_con_dp_balance(11)_:
+1 dp(0_11)
+1 dp(1_11)
= 0.0

c_e_con_dp_balance(12)_:
+1 dp(0_12)
+1 dp(1_12)
= 0.0

c_e_con_dp_balance(13)_:
+1 dp(0_13)
+1 dp(1_13)
= 0.0

c_e_con_dp_balance(14)_:
+1 dp(0_14)
+1 dp(1_14)
= 0.0

c_e_con_dp_balance(15)_:
+1 dp(0_15)
+1 dp(1_15)
= 0.0

c_e_con_dp_balance(16)_:
+1 dp(0_16)
+1 dp(1_16)
= 0.0

c_e_con_dp_balance(17)_:
+1 dp(0_17)
+1 dp(1_17)
= 0.0

c_e_con_dp_balance(18)_:
+1 dp(0_18)
+1 dp(1_18)
= 0.0

c_e_con_dp_balance(19)_:
+1 dp(0_19)
+1 dp(1_19)
= 0.0

c_e_con_dp_balance(20)_:
+1 dp(0_20)
+1 dp(1_20)
= 0.0

c_e_con_dp_balance(21)_:
+1 dp(0_21)
+1 dp(1_21)
= 0.0

c_e_con_dp_balance(22)_:
+1 dp(0_22)
+1 dp(1_22)
= 0.0

c_e_con_dp_balance(23)_:
+1 dp(0_23)
+1 dp(1_23)
= 0.0

c_e_total_costs_constraint_:
+1 total_costs
+20.0 dp(0_1)
+20.0 dp(0_2)
+20.0 dp(0_3)
+20.0 dp(0_4)
+20.0 dp(0_5)
+20.0 dp(0_6)
+20.0 dp(0_7)
+20.0 dp(0_8)
+20.0 dp(0_9)
+20.0 dp(0_10)
+20.0 dp(0_11)
+20.0 dp(0_12)
+20.0 dp(0_13)
+20.0 dp(0_14)
+20.0 dp(0_15)
+20.0 dp(0_16)
+20.0 dp(0_17)
+20.0 dp(0_18)
+20.0 dp(0_19)
+20.0 dp(0_20)
+20.0 dp(0_21)
+20.0 dp(0_22)
+ [
-20.0 dp(0_1) * u(0_1)
-20.0 dp(0_2) * u(0_2)
-20.0 dp(0_3) * u(0_3)
-20.0 dp(0_4) * u(0_4)
-20.0 dp(0_5) * u(0_5)
-20.0 dp(0_6) * u(0_6)
-20.0 dp(0_7) * u(0_7)
-20.0 dp(0_8) * u(0_8)
-20.0 dp(0_9) * u(0_9)
-20.0 dp(0_10) * u(0_10)
-20.0 dp(0_11) * u(0_11)
-20.0 dp(0_12) * u(0_12)
-20.0 dp(0_13) * u(0_13)
-20.0 dp(0_14) * u(0_14)
-20.0 dp(0_15) * u(0_15)
-20.0 dp(0_16) * u(0_16)
-20.0 dp(0_17) * u(0_17)
-20.0 dp(0_18) * u(0_18)
-20.0 dp(0_19) * u(0_19)
-20.0 dp(0_20) * u(0_20)
-20.0 dp(0_21) * u(0_21)
-20.0 dp(0_22) * u(0_22)
-400.0 dp(1_4) * u(1_4)
-400.0 dp(1_5) * u(1_5)
-400.0 dp(1_6) * u(1_6)
-400.0 dp(1_7) * u(1_7)
-400.0 dp(1_8) * u(1_8)
-400.0 dp(1_9) * u(1_9)
-400.0 dp(1_10) * u(1_10)
-400.0 dp(1_11) * u(1_11)
-400.0 dp(1_12) * u(1_12)
-400.0 dp(1_13) * u(1_13)
-400.0 dp(1_14) * u(1_14)
-400.0 dp(1_15) * u(1_15)
-400.0 dp(1_16) * u(1_16)
-400.0 dp(1_17) * u(1_17)
-400.0 dp(1_18) * u(1_18)
-400.0 dp(1_19) * u(1_19)
-400.0 dp(1_20) * u(1_20)
-400.0 dp(1_21) * u(1_21)
-400.0 dp(1_22) * u(1_22)
]
= 0

c_e_con_def_total_congestion_:
-1 congestion(0_0)
-1 congestion(0_1)
-1 congestion(0_2)
-1 congestion(0_3)
-1 congestion(0_4)
-1 congestion(0_5)
-1 congestion(0_6)
-1 congestion(0_7)
-1 congestion(0_8)
-1 congestion(0_9)
-1 congestion(0_10)
-1 congestion(0_11)
-1 congestion(0_12)
-1 congestion(0_13)
-1 congestion(0_14)
-1 congestion(0_15)
-1 congestion(0_16)
-1 congestion(0_17)
-1 congestion(0_18)
-1 congestion(0_19)
-1 congestion(0_20)
-1 congestion(0_21)
-1 congestion(0_22)
-1 congestion(0_23)
+1 total_congestion
= 0

c_e_zero_congestion_:
+1 total_congestion
= 0

bounds
   -inf <= total_costs <= +inf
   -inf <= dp(0_0) <= +inf
   -inf <= dp(0_1) <= +inf
   -inf <= dp(0_2) <= +inf
   -inf <= dp(0_3) <= +inf
   -inf <= dp(0_4) <= +inf
   -inf <= dp(0_5) <= +inf
   -inf <= dp(0_6) <= +inf
   -inf <= dp(0_7) <= +inf
   -inf <= dp(0_8) <= +inf
   -inf <= dp(0_9) <= +inf
   -inf <= dp(0_10) <= +inf
   -inf <= dp(0_11) <= +inf
   -inf <= dp(0_12) <= +inf
   -inf <= dp(0_13) <= +inf
   -inf <= dp(0_14) <= +inf
   -inf <= dp(0_15) <= +inf
   -inf <= dp(0_16) <= +inf
   -inf <= dp(0_17) <= +inf
   -inf <= dp(0_18) <= +inf
   -inf <= dp(0_19) <= +inf
   -inf <= dp(0_20) <= +inf
   -inf <= dp(0_21) <= +inf
   -inf <= dp(0_22) <= +inf
   -inf <= dp(0_23) <= +inf
   -inf <= dp(1_0) <= +inf
   -inf <= dp(1_1) <= +inf
   -inf <= dp(1_2) <= +inf
   -inf <= dp(1_3) <= +inf
   -inf <= dp(1_4) <= +inf
   -inf <= dp(1_5) <= +inf
   -inf <= dp(1_6) <= +inf
   -inf <= dp(1_7) <= +inf
   -inf <= dp(1_8) <= +inf
   -inf <= dp(1_9) <= +inf
   -inf <= dp(1_10) <= +inf
   -inf <= dp(1_11) <= +inf
   -inf <= dp(1_12) <= +inf
   -inf <= dp(1_13) <= +inf
   -inf <= dp(1_14) <= +inf
   -inf <= dp(1_15) <= +inf
   -inf <= dp(1_16) <= +inf
   -inf <= dp(1_17) <= +inf
   -inf <= dp(1_18) <= +inf
   -inf <= dp(1_19) <= +inf
   -inf <= dp(1_20) <= +inf
   -inf <= dp(1_21) <= +inf
   -inf <= dp(1_22) <= +inf
   -inf <= dp(1_23) <= +inf
   0 <= u(0_0) <= 1
   0 <= u(0_1) <= 1
   0 <= u(0_2) <= 1
   0 <= u(0_3) <= 1
   0 <= u(0_4) <= 1
   0 <= u(0_5) <= 1
   0 <= u(0_6) <= 1
   0 <= u(0_7) <= 1
   0 <= u(0_8) <= 1
   0 <= u(0_9) <= 1
   0 <= u(0_10) <= 1
   0 <= u(0_11) <= 1
   0 <= u(0_12) <= 1
   0 <= u(0_13) <= 1
   0 <= u(0_14) <= 1
   0 <= u(0_15) <= 1
   0 <= u(0_16) <= 1
   0 <= u(0_17) <= 1
   0 <= u(0_18) <= 1
   0 <= u(0_19) <= 1
   0 <= u(0_20) <= 1
   0 <= u(0_21) <= 1
   0 <= u(0_22) <= 1
   0 <= u(0_23) <= 1
   0 <= u(1_0) <= 1
   0 <= u(1_1) <= 1
   0 <= u(1_2) <= 1
   0 <= u(1_3) <= 1
   0 <= u(1_4) <= 1
   0 <= u(1_5) <= 1
   0 <= u(1_6) <= 1
   0 <= u(1_7) <= 1
   0 <= u(1_8) <= 1
   0 <= u(1_9) <= 1
   0 <= u(1_10) <= 1
   0 <= u(1_11) <= 1
   0 <= u(1_12) <= 1
   0 <= u(1_13) <= 1
   0 <= u(1_14) <= 1
   0 <= u(1_15) <= 1
   0 <= u(1_16) <= 1
   0 <= u(1_17) <= 1
   0 <= u(1_18) <= 1
   0 <= u(1_19) <= 1
   0 <= u(1_20) <= 1
   0 <= u(1_21) <= 1
   0 <= u(1_22) <= 1
   0 <= u(1_23) <= 1
   -inf <= f(0_0) <= +inf
   -inf <= f(0_1) <= +inf
   -inf <= f(0_2) <= +inf
   -inf <= f(0_3) <= +inf
   -inf <= f(0_4) <= +inf
   -inf <= f(0_5) <= +inf
   -inf <= f(0_6) <= +inf
   -inf <= f(0_7) <= +inf
   -inf <= f(0_8) <= +inf
   -inf <= f(0_9) <= +inf
   -inf <= f(0_10) <= +inf
   -inf <= f(0_11) <= +inf
   -inf <= f(0_12) <= +inf
   -inf <= f(0_13) <= +inf
   -inf <= f(0_14) <= +inf
   -inf <= f(0_15) <= +inf
   -inf <= f(0_16) <= +inf
   -inf <= f(0_17) <= +inf
   -inf <= f(0_18) <= +inf
   -inf <= f(0_19) <= +inf
   -inf <= f(0_20) <= +inf
   -inf <= f(0_21) <= +inf
   -inf <= f(0_22) <= +inf
   -inf <= f(0_23) <= +inf
   0 <= congestion(0_0) <= +inf
   0 <= congestion(0_1) <= +inf
   0 <= congestion(0_2) <= +inf
   0 <= congestion(0_3) <= +inf
   0 <= congestion(0_4) <= +inf
   0 <= congestion(0_5) <= +inf
   0 <= congestion(0_6) <= +inf
   0 <= congestion(0_7) <= +inf
   0 <= congestion(0_8) <= +inf
   0 <= congestion(0_9) <= +inf
   0 <= congestion(0_10) <= +inf
   0 <= congestion(0_11) <= +inf
   0 <= congestion(0_12) <= +inf
   0 <= congestion(0_13) <= +inf
   0 <= congestion(0_14) <= +inf
   0 <= congestion(0_15) <= +inf
   0 <= congestion(0_16) <= +inf
   0 <= congestion(0_17) <= +inf
   0 <= congestion(0_18) <= +inf
   0 <= congestion(0_19) <= +inf
   0 <= congestion(0_20) <= +inf
   0 <= congestion(0_21) <= +inf
   0 <= congestion(0_22) <= +inf
   0 <= congestion(0_23) <= +inf
   -inf <= theta(0_0) <= +inf
   -inf <= theta(0_1) <= +inf
   -inf <= theta(0_2) <= +inf
   -inf <= theta(0_3) <= +inf
   -inf <= theta(0_4) <= +inf
   -inf <= theta(0_5) <= +inf
   -inf <= theta(0_6) <= +inf
   -inf <= theta(0_7) <= +inf
   -inf <= theta(0_8) <= +inf
   -inf <= theta(0_9) <= +inf
   -inf <= theta(0_10) <= +inf
   -inf <= theta(0_11) <= +inf
   -inf <= theta(0_12) <= +inf
   -inf <= theta(0_13) <= +inf
   -inf <= theta(0_14) <= +inf
   -inf <= theta(0_15) <= +inf
   -inf <= theta(0_16) <= +inf
   -inf <= theta(0_17) <= +inf
   -inf <= theta(0_18) <= +inf
   -inf <= theta(0_19) <= +inf
   -inf <= theta(0_20) <= +inf
   -inf <= theta(0_21) <= +inf
   -inf <= theta(0_22) <= +inf
   -inf <= theta(0_23) <= +inf
   -inf <= theta(1_0) <= +inf
   -inf <= theta(1_1) <= +inf
   -inf <= theta(1_2) <= +inf
   -inf <= theta(1_3) <= +inf
   -inf <= theta(1_4) <= +inf
   -inf <= theta(1_5) <= +inf
   -inf <= theta(1_6) <= +inf
   -inf <= theta(1_7) <= +inf
   -inf <= theta(1_8) <= +inf
   -inf <= theta(1_9) <= +inf
   -inf <= theta(1_10) <= +inf
   -inf <= theta(1_11) <= +inf
   -inf <= theta(1_12) <= +inf
   -inf <= theta(1_13) <= +inf
   -inf <= theta(1_14) <= +inf
   -inf <= theta(1_15) <= +inf
   -inf <= theta(1_16) <= +inf
   -inf <= theta(1_17) <= +inf
   -inf <= theta(1_18) <= +inf
   -inf <= theta(1_19) <= +inf
   -inf <= theta(1_20) <= +inf
   -inf <= theta(1_21) <= +inf
   -inf <= theta(1_22) <= +inf
   -inf <= theta(1_23) <= +inf
   -inf <= p(0_0) <= +inf
   -inf <= p(0_1) <= +inf
   -inf <= p(0_2) <= +inf
   -inf <= p(0_3) <= +inf
   -inf <= p(0_4) <= +inf
   -inf <= p(0_5) <= +inf
   -inf <= p(0_6) <= +inf
   -inf <= p(0_7) <= +inf
   -inf <= p(0_8) <= +inf
   -inf <= p(0_9) <= +inf
   -inf <= p(0_10) <= +inf
   -inf <= p(0_11) <= +inf
   -inf <= p(0_12) <= +inf
   -inf <= p(0_13) <= +inf
   -inf <= p(0_14) <= +inf
   -inf <= p(0_15) <= +inf
   -inf <= p(0_16) <= +inf
   -inf <= p(0_17) <= +inf
   -inf <= p(0_18) <= +inf
   -inf <= p(0_19) <= +inf
   -inf <= p(0_20) <= +inf
   -inf <= p(0_21) <= +inf
   -inf <= p(0_22) <= +inf
   -inf <= p(0_23) <= +inf
   -inf <= p(1_0) <= +inf
   -inf <= p(1_1) <= +inf
   -inf <= p(1_2) <= +inf
   -inf <= p(1_3) <= +inf
   -inf <= p(1_4) <= +inf
   -inf <= p(1_5) <= +inf
   -inf <= p(1_6) <= +inf
   -inf <= p(1_7) <= +inf
   -inf <= p(1_8) <= +inf
   -inf <= p(1_9) <= +inf
   -inf <= p(1_10) <= +inf
   -inf <= p(1_11) <= +inf
   -inf <= p(1_12) <= +inf
   -inf <= p(1_13) <= +inf
   -inf <= p(1_14) <= +inf
   -inf <= p(1_15) <= +inf
   -inf <= p(1_16) <= +inf
   -inf <= p(1_17) <= +inf
   -inf <= p(1_18) <= +inf
   -inf <= p(1_19) <= +inf
   -inf <= p(1_20) <= +inf
   -inf <= p(1_21) <= +inf
   -inf <= p(1_22) <= +inf
   -inf <= p(1_23) <= +inf
   -inf <= total_congestion <= +inf
binary
  u(0_0)
  u(0_1)
  u(0_2)
  u(0_3)
  u(0_4)
  u(0_5)
  u(0_6)
  u(0_7)
  u(0_8)
  u(0_9)
  u(0_10)
  u(0_11)
  u(0_12)
  u(0_13)
  u(0_14)
  u(0_15)
  u(0_16)
  u(0_17)
  u(0_18)
  u(0_19)
  u(0_20)
  u(0_21)
  u(0_22)
  u(0_23)
  u(1_0)
  u(1_1)
  u(1_2)
  u(1_3)
  u(1_4)
  u(1_5)
  u(1_6)
  u(1_7)
  u(1_8)
  u(1_9)
  u(1_10)
  u(1_11)
  u(1_12)
  u(1_13)
  u(1_14)
  u(1_15)
  u(1_16)
  u(1_17)
  u(1_18)
  u(1_19)
  u(1_20)
  u(1_21)
  u(1_22)
  u(1_23)
end
